GLPSOL: GLPK LP/MIP Solver, v4.65
Parameter(s) specified in the command line:
 -m eqsystem-error-min.mod -d eqsystem-overspecified.dat --log eqsystem-overspecified-error-min.log
Reading model section from eqsystem-error-min.mod...
39 lines were read
Reading data section from eqsystem-overspecified.dat...
30 lines were read
Generating Cts_Error_Up...
Generating Cts_Error_Down...
Generating maxOfAllErrors...
Model has been successfully generated
GLPK Simplex Optimizer, v4.65
13 rows, 6 columns, 51 non-zeros
Preprocessing...
12 rows, 6 columns, 50 non-zeros
Scaling...
 A: min|aij| =  1.000e+00  max|aij| =  7.000e+00  ratio =  7.000e+00
Problem data seem to be well scaled
Constructing initial basis...
Size of triangular part is 12
      0: obj =   0.000000000e+00 inf =   1.200e+01 (4)
      5: obj =   3.500000000e+00 inf =   0.000e+00 (0)
*     8: obj =   4.782608696e-01 inf =   0.000e+00 (0)
OPTIMAL LP SOLUTION FOUND
Time used:   0.0 secs
Memory used: 0.1 Mb (131882 bytes)
Optimal error: 0.478261
Variables:
x = -3.42029
y = -1.21884
z = 2.24058
w = 3.23768
v = -0.36087
Equations:
  Eq1: RHS= -5.000000, LHS= -4.521739, error=  0.478261
  Eq2: RHS= -5.000000, LHS= -5.478261, error=  0.478261
  Eq3: RHS=  1.500000, LHS=  1.021739, error=  0.478261
  Eq4: RHS=  0.000000, LHS= -0.478261, error=  0.478261
  Eq5: RHS= -0.500000, LHS= -0.021739, error=  0.478261
  Eq6: RHS=  0.000000, LHS=  0.478261, error=  0.478261
Model has been successfully processed
